int NumberPatients = 224
int NumberOfRooms = 3
int NumberSurgeons = 17
int NumberOfDays = 6
Duration = [47,98,210,39,210,103,96,97,66,66,217,59,72,47,47,117,47,42,234,72,103,47,47,75,47,47,217,59,30,98,46,59,103,216,47,46,47,47,238,210,238,72,68,85,47,46,46,39,105,217,66,47,98,72,277,66,47,47,79,103,60,47,67,165,95,47,47,46,210,103,107,131,47,238,105,103,105,85,103,96,47,132,47,31,122,72,65,53,79,107,210,98,115,46,66,78,39,117,47,210,117,238,66,66,66,46,47,103,131,47,86,101,66,53,29,210,105,47,132,112,103,47,66,101,138,131,103,210,103,131,131,146,103,85,85,46,31,47,75,67,238,46,53,47,38,31,46,103,47,131,117,105,46,317,47,93,58,103,46,47,132,103,47,123,103,59,47,103,103,59,238,66,72,131,145,98,101,47,140,132,132,55,260,47,47,58,101,32,131,267,59,146,105,29,47,217,256,66,47,98,47,264,39,90,58,260,210,85,44,103,100,78,112,60,252,256,97,60,238,64,47,97,66,131];
Priority = [0,0,0,0,0,0,0,0,0,0,0,0,0,0,0,0,0,0,0,0,0,0,0,0,0,0,0,0,0,0,0,0,0,0,0,0,0,0,0,0,0,0,0,0,0,0,0,0,0,0,0,0,0,0,0,0,0,0,0,0,0,0,0,0,0,0,0,0,0,0,0,0,0,0,0,0,0,0,0,0,0,0,0,0,0,0,0,0,0,0,0,0,0,0,0,0,0,0,0,0,0,0,0,0,0,0,0,0,0,0,0,0,0,0,0,0,0,0,0,0,0,0,0,0,0,0,0,0,0,0,0,0,0,0,0,0,0,0,0,0,0,0,0,0,0,0,0,0,0,0,0,0,0,0,0,0,0,0,0,0,0,0,0,0,0,0,0,0,0,0,0,0,0,0,0,0,0,0,0,0,0,0,0,0,0,0,0,0,0,0,0,0,0,0,0,0,0,0,0,0,0,0,0,0,0,1,1,0,0,0,0,0,0,0,0,0,0,0,1,0,0,1,0,1];
Waiting = [211,499,534,507,214,214,214,305,283,310,319,312,316,324,324,319,317,548,396,249,242,242,351,478,354,354,480,261,261,361,361,487,366,375,366,366,387,387,221,221,221,221,389,389,394,480,473,270,382,382,430,431,199,410,410,438,338,338,338,247,247,445,422,464,456,417,417,205,205,205,487,487,494,494,518,200,200,200,548,604,487,375,459,1047,1096,1065,198,220,228,228,227,424,275,277,200,199,256,543,284,291,424,193,193,191,191,191,191,186,185,179,178,178,178,178,177,172,172,172,172,172,170,165,164,164,163,158,158,158,158,150,150,150,149,148,150,144,144,144,144,142,137,137,137,135,135,135,135,123,123,122,116,116,116,116,115,115,114,107,107,102,102,95,95,95,81,81,81,79,79,79,74,74,73,73,72,67,67,67,67,65,65,60,60,60,59,59,58,58,52,52,51,51,51,50,46,46,45,45,45,45,39,39,37,37,37,35,35,32,32,31,23,24,23,23,24,24,30,30,30,25,25,25,25,24];

Surgeon = [1,2,3,4,3,2,3,5,4,2,6,3,1,1,1,7,1,3,8,3,3,9,3,2,1,3,8,2,2,3,8,3,2,8,1,1,1,1,3,3,3,3,8,3,1,3,3,9,8,3,6,3,10,3,3,6,1,1,1,2,2,8,2,8,1,3,3,1,2,1,3,6,6,8,1,6,3,6,2,1,8,2,3,1,6,1,2,10,9,3,10,8,1,9,3,10,9,9,11,9,3,6,6,2,1,1,1,3,10,3,7,10,10,7,1,9,9,9,3,9,12,9,13,4,2,6,6,6,6,14,10,10,2,3,10,1,3,3,3,2,3,9,6,1,1,1,1,3,3,13,3,13,13,3,13,5,1,1,1,3,3,3,3,9,3,3,3,2,1,2,3,3,15,4,2,3,9,3,6,1,1,3,3,3,15,15,1,2,4,4,2,2,2,16,3,9,4,12,4,17,6,3,1,1,1,3,3,3,3,10,1,10,1,1,10,4,1,1,3,3,3,6,6,4];
BlockAvailability = [[[1,1],[0,0],[0,0]],[[0,1],[1,1],[0,0]],[[0,1],[0,0],[0,0]],[[1,0],[0,0],[1,1]],[[0,0],[0,0],[0,0]],[[0,0],[0,0],[0,0]]];
SurgeonAvailability = [[[1,1],[1,1],[1,1],[1,1],[1,1],[1,1]],[[1,1],[1,1],[1,1],[1,1],[1,1],[1,1]],[[1,1],[1,1],[1,1],[1,1],[1,1],[1,1]],[[1,1],[1,1],[1,1],[1,1],[1,1],[1,1]],[[1,1],[1,1],[1,1],[1,1],[1,1],[1,1]],[[1,1],[1,1],[1,1],[1,1],[1,1],[1,1]],[[1,1],[1,1],[1,1],[1,1],[1,1],[1,1]],[[1,1],[1,1],[1,1],[1,1],[1,1],[1,1]],[[1,1],[1,1],[1,1],[1,1],[1,1],[1,1]],[[1,1],[1,1],[1,1],[1,1],[1,1],[1,1]],[[1,1],[1,1],[1,1],[1,1],[1,1],[1,1]],[[1,1],[1,1],[1,1],[1,1],[1,1],[1,1]],[[1,1],[1,1],[1,1],[1,1],[1,1],[1,1]],[[1,1],[1,1],[1,1],[1,1],[1,1],[1,1]],[[1,1],[1,1],[1,1],[1,1],[1,1],[1,1]],[[1,1],[1,1],[1,1],[1,1],[1,1],[1,1]],[[1,1],[1,1],[1,1],[1,1],[1,1],[1,1]]];
